NAME: tsp35_18
COMMENT: 35-tsp problem (Padberg/Rinaldi)
TYPE: TSP
DIMENSION: 35
EDGE_WEIGHT_TYPE : EUC_2D
NODE_COORD_SECTION
1 8 13
2 1 13
3 37 10
4 19 4
5 29 2
6 28 6
7 13 9
8 9 33
9 39 18
10 6 3
11 28 23
12 21 25
13 12 25
14 15 36
15 32 2
16 24 37
17 25 12
18 24 28
19 30 5
20 28 12
21 37 25
22 40 2
23 19 31
24 4 33
25 37 20
26 14 3
27 2 37
28 19 30
29 39 4
30 1 29
31 11 0
32 36 17
33 1 20
34 14 22
35 10 37
